p cnf 233 856
c p weight -17 1 0
c p weight 17 -1 0
c p weight 21 6.12323399573676603586882014729198302312846062338790031898128063403419218957424163818359375E-17 0
c p weight -21 1 0
c p weight 22 1 0
c p weight -22 1 0
c p weight -19 1 0
c p weight 19 -1 0
c p weight -23 1 0
c p weight 23 -1 0
c p weight -25 1 0
c p weight 25 -1 0
c p weight 29 6.12323399573676603586882014729198302312846062338790031898128063403419218957424163818359375E-17 0
c p weight -29 1 0
c p weight 30 1 0
c p weight -30 1 0
c p weight -27 1 0
c p weight 27 -1 0
c p weight -31 1 0
c p weight 31 -1 0
c p weight -33 1 0
c p weight 33 -1 0
c p weight 37 6.12323399573676603586882014729198302312846062338790031898128063403419218957424163818359375E-17 0
c p weight -37 1 0
c p weight 38 1 0
c p weight -38 1 0
c p weight -35 1 0
c p weight 35 -1 0
c p weight -39 1 0
c p weight 39 -1 0
c p weight -41 1 0
c p weight 41 -1 0
c p weight -44 1 0
c p weight 44 -1 0
c p weight 48 6.12323399573676603586882014729198302312846062338790031898128063403419218957424163818359375E-17 0
c p weight -48 1 0
c p weight 49 1 0
c p weight -49 1 0
c p weight -46 1 0
c p weight 46 -1 0
c p weight -50 1 0
c p weight 50 -1 0
c p weight -52 1 0
c p weight 52 -1 0
c p weight 56 6.12323399573676603586882014729198302312846062338790031898128063403419218957424163818359375E-17 0
c p weight -56 1 0
c p weight 57 1 0
c p weight -57 1 0
c p weight -54 1 0
c p weight 54 -1 0
c p weight -58 1 0
c p weight 58 -1 0
c p weight -60 1 0
c p weight 60 -1 0
c p weight 64 6.12323399573676603586882014729198302312846062338790031898128063403419218957424163818359375E-17 0
c p weight -64 1 0
c p weight 65 1 0
c p weight -65 1 0
c p weight -62 1 0
c p weight 62 -1 0
c p weight -66 1 0
c p weight 66 -1 0
c p weight -68 1 0
c p weight 68 -1 0
c p weight -71 1 0
c p weight 71 -1 0
c p weight 75 6.12323399573676603586882014729198302312846062338790031898128063403419218957424163818359375E-17 0
c p weight -75 1 0
c p weight 76 1 0
c p weight -76 1 0
c p weight -73 1 0
c p weight 73 -1 0
c p weight -77 1 0
c p weight 77 -1 0
c p weight -79 1 0
c p weight 79 -1 0
c p weight 83 6.12323399573676603586882014729198302312846062338790031898128063403419218957424163818359375E-17 0
c p weight -83 1 0
c p weight 84 1 0
c p weight -84 1 0
c p weight -81 1 0
c p weight 81 -1 0
c p weight -85 1 0
c p weight 85 -1 0
c p weight -87 1 0
c p weight 87 -1 0
c p weight -90 1 0
c p weight 90 -1 0
c p weight 94 6.12323399573676603586882014729198302312846062338790031898128063403419218957424163818359375E-17 0
c p weight -94 1 0
c p weight 95 1 0
c p weight -95 1 0
c p weight -92 1 0
c p weight 92 -1 0
c p weight -96 1 0
c p weight 96 -1 0
c p weight -98 1 0
c p weight 98 -1 0
c p weight 102 6.12323399573676603586882014729198302312846062338790031898128063403419218957424163818359375E-17 0
c p weight -102 1 0
c p weight 103 1 0
c p weight -103 1 0
c p weight -100 1 0
c p weight 100 -1 0
c p weight -104 1 0
c p weight 104 -1 0
c p weight -106 1 0
c p weight 106 -1 0
c p weight 110 6.12323399573676603586882014729198302312846062338790031898128063403419218957424163818359375E-17 0
c p weight -110 1 0
c p weight 111 1 0
c p weight -111 1 0
c p weight -108 1 0
c p weight 108 -1 0
c p weight -112 1 0
c p weight 112 -1 0
c p weight -114 1 0
c p weight 114 -1 0
c p weight 118 6.12323399573676603586882014729198302312846062338790031898128063403419218957424163818359375E-17 0
c p weight -118 1 0
c p weight 119 1 0
c p weight -119 1 0
c p weight -116 1 0
c p weight 116 -1 0
c p weight -120 1 0
c p weight 120 -1 0
c p weight -122 1 0
c p weight 122 -1 0
c p weight -125 1 0
c p weight 125 -1 0
c p weight 129 6.12323399573676603586882014729198302312846062338790031898128063403419218957424163818359375E-17 0
c p weight -129 1 0
c p weight 130 1 0
c p weight -130 1 0
c p weight -127 1 0
c p weight 127 -1 0
c p weight -131 1 0
c p weight 131 -1 0
c p weight -133 1 0
c p weight 133 -1 0
c p weight 137 6.12323399573676603586882014729198302312846062338790031898128063403419218957424163818359375E-17 0
c p weight -137 1 0
c p weight 138 1 0
c p weight -138 1 0
c p weight -135 1 0
c p weight 135 -1 0
c p weight -139 1 0
c p weight 139 -1 0
c p weight -141 1 0
c p weight 141 -1 0
c p weight 145 6.12323399573676603586882014729198302312846062338790031898128063403419218957424163818359375E-17 0
c p weight -145 1 0
c p weight 146 1 0
c p weight -146 1 0
c p weight -143 1 0
c p weight 143 -1 0
c p weight -147 1 0
c p weight 147 -1 0
c p weight -149 1 0
c p weight 149 -1 0
c p weight 153 6.12323399573676603586882014729198302312846062338790031898128063403419218957424163818359375E-17 0
c p weight -153 1 0
c p weight 154 1 0
c p weight -154 1 0
c p weight -151 1 0
c p weight 151 -1 0
c p weight -155 1 0
c p weight 155 -1 0
c p weight -157 1 0
c p weight 157 -1 0
c p weight -160 1 0
c p weight 160 -1 0
c p weight 164 6.12323399573676603586882014729198302312846062338790031898128063403419218957424163818359375E-17 0
c p weight -164 1 0
c p weight 165 1 0
c p weight -165 1 0
c p weight -162 1 0
c p weight 162 -1 0
c p weight -166 1 0
c p weight 166 -1 0
c p weight -168 1 0
c p weight 168 -1 0
c p weight 172 6.12323399573676603586882014729198302312846062338790031898128063403419218957424163818359375E-17 0
c p weight -172 1 0
c p weight 173 1 0
c p weight -173 1 0
c p weight -170 1 0
c p weight 170 -1 0
c p weight -174 1 0
c p weight 174 -1 0
c p weight -176 1 0
c p weight 176 -1 0
c p weight -179 1 0
c p weight 179 -1 0
c p weight 183 6.12323399573676603586882014729198302312846062338790031898128063403419218957424163818359375E-17 0
c p weight -183 1 0
c p weight 184 1 0
c p weight -184 1 0
c p weight -181 1 0
c p weight 181 -1 0
c p weight -185 1 0
c p weight 185 -1 0
c p weight -187 1 0
c p weight 187 -1 0
c p weight 191 6.12323399573676603586882014729198302312846062338790031898128063403419218957424163818359375E-17 0
c p weight -191 1 0
c p weight 192 1 0
c p weight -192 1 0
c p weight -189 1 0
c p weight 189 -1 0
c p weight -193 1 0
c p weight 193 -1 0
c p weight -195 1 0
c p weight 195 -1 0
c p weight 199 6.12323399573676603586882014729198302312846062338790031898128063403419218957424163818359375E-17 0
c p weight -199 1 0
c p weight 200 1 0
c p weight -200 1 0
c p weight -197 1 0
c p weight 197 -1 0
c p weight -201 1 0
c p weight 201 -1 0
c p weight -203 1 0
c p weight 203 -1 0
c p weight -206 1 0
c p weight 206 -1 0
c p weight 210 6.12323399573676603586882014729198302312846062338790031898128063403419218957424163818359375E-17 0
c p weight -210 1 0
c p weight 211 1 0
c p weight -211 1 0
c p weight -208 1 0
c p weight 208 -1 0
c p weight -212 1 0
c p weight 212 -1 0
c p weight -214 1 0
c p weight 214 -1 0
c p weight 218 6.12323399573676603586882014729198302312846062338790031898128063403419218957424163818359375E-17 0
c p weight -218 1 0
c p weight 219 1 0
c p weight -219 1 0
c p weight -216 1 0
c p weight 216 -1 0
c p weight -220 1 0
c p weight 220 -1 0
c p weight -222 1 0
c p weight 222 -1 0
c p weight -225 1 0
c p weight 225 -1 0
c p weight 229 6.12323399573676603586882014729198302312846062338790031898128063403419218957424163818359375E-17 0
c p weight -229 1 0
c p weight 230 1 0
c p weight -230 1 0
c p weight -227 1 0
c p weight 227 -1 0
c p weight -231 1 0
c p weight 231 -1 0
c p weight 233 0.5 0
c p weight -233 1 0
233 0
-15 0
-13 0
-11 0
-9 0
-7 0
-5 0
-3 0
-1 0
-17 1 0
-17 2 0
17 -1 -2 0
18 1 -2 0
18 -1 2 0
-18 1 2 0
-18 -1 -2 0
-19 20 0
-19 18 0
-19 -1 0
19 -20 1 -18 0
20 -1 18 0
-20 1 18 0
-21 18 0
20 -21 -1 0
-20 -21 1 0
20 21 1 -18 0
-20 21 -1 -18 0
-22 18 0
20 -22 1 0
-20 -22 -1 0
20 22 -1 -18 0
-20 22 1 -18 0
-23 20 0
-23 18 0
23 -20 -18 0
24 20 -18 0
24 -20 18 0
-24 20 18 0
-24 -20 -18 0
-25 3 0
-25 4 0
25 -3 -4 0
26 3 -4 0
26 -3 4 0
-26 3 4 0
-26 -3 -4 0
-27 28 0
-27 26 0
-27 -3 0
27 -28 3 -26 0
28 -3 26 0
-28 3 26 0
-29 26 0
28 -29 -3 0
-28 -29 3 0
28 29 3 -26 0
-28 29 -3 -26 0
-30 26 0
28 -30 3 0
-28 -30 -3 0
28 30 -3 -26 0
-28 30 3 -26 0
-31 28 0
-31 26 0
31 -28 -26 0
32 28 -26 0
32 -28 26 0
-32 28 26 0
-32 -28 -26 0
-33 28 0
-33 32 0
33 -28 -32 0
34 28 -32 0
34 -28 32 0
-34 28 32 0
-34 -28 -32 0
-35 36 0
-35 34 0
-35 -28 0
35 -36 28 -34 0
36 -28 34 0
-36 28 34 0
-37 34 0
36 -37 -28 0
-36 -37 28 0
36 37 28 -34 0
-36 37 -28 -34 0
-38 34 0
36 -38 28 0
-36 -38 -28 0
36 38 -28 -34 0
-36 38 28 -34 0
-39 36 0
-39 34 0
39 -36 -34 0
40 36 -34 0
40 -36 34 0
-40 36 34 0
-40 -36 -34 0
-41 20 0
-41 40 0
-41 36 -24 0
-41 -36 24 0
41 -20 36 24 -40 0
41 -20 -36 -24 -40 0
43 20 -36 0
43 -20 36 0
-43 20 36 0
-43 -20 -36 0
42 24 -40 0
42 -24 40 0
-42 24 40 0
-42 -24 -40 0
-44 43 0
-44 40 0
44 -43 -40 0
45 43 -40 0
45 -43 40 0
-45 43 40 0
-45 -43 -40 0
-46 47 0
-46 45 0
-46 -43 0
46 -47 43 -45 0
47 -43 45 0
-47 43 45 0
-48 45 0
47 -48 -43 0
-47 -48 43 0
47 48 43 -45 0
-47 48 -43 -45 0
-49 45 0
47 -49 43 0
-47 -49 -43 0
47 49 -43 -45 0
-47 49 43 -45 0
-50 47 0
-50 45 0
50 -47 -45 0
51 47 -45 0
51 -47 45 0
-51 47 45 0
-51 -47 -45 0
-52 5 0
-52 6 0
52 -5 -6 0
53 5 -6 0
53 -5 6 0
-53 5 6 0
-53 -5 -6 0
-54 55 0
-54 53 0
-54 -5 0
54 -55 5 -53 0
55 -5 53 0
-55 5 53 0
-56 53 0
55 -56 -5 0
-55 -56 5 0
55 56 5 -53 0
-55 56 -5 -53 0
-57 53 0
55 -57 5 0
-55 -57 -5 0
55 57 -5 -53 0
-55 57 5 -53 0
-58 55 0
-58 53 0
58 -55 -53 0
59 55 -53 0
59 -55 53 0
-59 55 53 0
-59 -55 -53 0
-60 55 0
-60 59 0
60 -55 -59 0
61 55 -59 0
61 -55 59 0
-61 55 59 0
-61 -55 -59 0
-62 63 0
-62 61 0
-62 -55 0
62 -63 55 -61 0
63 -55 61 0
-63 55 61 0
-64 61 0
63 -64 -55 0
-63 -64 55 0
63 64 55 -61 0
-63 64 -55 -61 0
-65 61 0
63 -65 55 0
-63 -65 -55 0
63 65 -55 -61 0
-63 65 55 -61 0
-66 63 0
-66 61 0
66 -63 -61 0
67 63 -61 0
67 -63 61 0
-67 63 61 0
-67 -63 -61 0
-68 20 0
-68 67 0
-68 63 -42 0
-68 -63 42 0
68 -20 63 42 -67 0
68 -20 -63 -42 -67 0
70 20 -63 0
70 -20 63 0
-70 20 63 0
-70 -20 -63 0
69 42 -67 0
69 -42 67 0
-69 42 67 0
-69 -42 -67 0
-71 70 0
-71 67 0
71 -70 -67 0
72 70 -67 0
72 -70 67 0
-72 70 67 0
-72 -70 -67 0
-73 74 0
-73 72 0
-73 -70 0
73 -74 70 -72 0
74 -70 72 0
-74 70 72 0
-75 72 0
74 -75 -70 0
-74 -75 70 0
74 75 70 -72 0
-74 75 -70 -72 0
-76 72 0
74 -76 70 0
-74 -76 -70 0
74 76 -70 -72 0
-74 76 70 -72 0
-77 74 0
-77 72 0
77 -74 -72 0
78 74 -72 0
78 -74 72 0
-78 74 72 0
-78 -74 -72 0
-79 74 0
-79 78 0
79 -74 -78 0
80 74 -78 0
80 -74 78 0
-80 74 78 0
-80 -74 -78 0
-81 82 0
-81 80 0
-81 -74 0
81 -82 74 -80 0
82 -74 80 0
-82 74 80 0
-83 80 0
82 -83 -74 0
-82 -83 74 0
82 83 74 -80 0
-82 83 -74 -80 0
-84 80 0
82 -84 74 0
-82 -84 -74 0
82 84 -74 -80 0
-82 84 74 -80 0
-85 82 0
-85 80 0
85 -82 -80 0
86 82 -80 0
86 -82 80 0
-86 82 80 0
-86 -82 -80 0
-87 47 0
-87 86 0
-87 82 -51 0
-87 -82 51 0
87 -47 82 51 -86 0
87 -47 -82 -51 -86 0
89 47 -82 0
89 -47 82 0
-89 47 82 0
-89 -47 -82 0
88 51 -86 0
88 -51 86 0
-88 51 86 0
-88 -51 -86 0
-90 89 0
-90 86 0
90 -89 -86 0
91 89 -86 0
91 -89 86 0
-91 89 86 0
-91 -89 -86 0
-92 93 0
-92 91 0
-92 -89 0
92 -93 89 -91 0
93 -89 91 0
-93 89 91 0
-94 91 0
93 -94 -89 0
-93 -94 89 0
93 94 89 -91 0
-93 94 -89 -91 0
-95 91 0
93 -95 89 0
-93 -95 -89 0
93 95 -89 -91 0
-93 95 89 -91 0
-96 93 0
-96 91 0
96 -93 -91 0
97 93 -91 0
97 -93 91 0
-97 93 91 0
-97 -93 -91 0
-98 7 0
-98 8 0
98 -7 -8 0
99 7 -8 0
99 -7 8 0
-99 7 8 0
-99 -7 -8 0
-100 101 0
-100 99 0
-100 -7 0
100 -101 7 -99 0
101 -7 99 0
-101 7 99 0
-102 99 0
101 -102 -7 0
-101 -102 7 0
101 102 7 -99 0
-101 102 -7 -99 0
-103 99 0
101 -103 7 0
-101 -103 -7 0
101 103 -7 -99 0
-101 103 7 -99 0
-104 101 0
-104 99 0
104 -101 -99 0
105 101 -99 0
105 -101 99 0
-105 101 99 0
-105 -101 -99 0
-106 9 0
-106 10 0
106 -9 -10 0
107 9 -10 0
107 -9 10 0
-107 9 10 0
-107 -9 -10 0
-108 109 0
-108 107 0
-108 -9 0
108 -109 9 -107 0
109 -9 107 0
-109 9 107 0
-110 107 0
109 -110 -9 0
-109 -110 9 0
109 110 9 -107 0
-109 110 -9 -107 0
-111 107 0
109 -111 9 0
-109 -111 -9 0
109 111 -9 -107 0
-109 111 9 -107 0
-112 109 0
-112 107 0
112 -109 -107 0
113 109 -107 0
113 -109 107 0
-113 109 107 0
-113 -109 -107 0
-114 109 0
-114 113 0
114 -109 -113 0
115 109 -113 0
115 -109 113 0
-115 109 113 0
-115 -109 -113 0
-116 117 0
-116 115 0
-116 -109 0
116 -117 109 -115 0
117 -109 115 0
-117 109 115 0
-118 115 0
117 -118 -109 0
-117 -118 109 0
117 118 109 -115 0
-117 118 -109 -115 0
-119 115 0
117 -119 109 0
-117 -119 -109 0
117 119 -109 -115 0
-117 119 109 -115 0
-120 117 0
-120 115 0
120 -117 -115 0
121 117 -115 0
121 -117 115 0
-121 117 115 0
-121 -117 -115 0
-122 101 0
-122 121 0
-122 117 -105 0
-122 -117 105 0
122 -101 117 105 -121 0
122 -101 -117 -105 -121 0
124 101 -117 0
124 -101 117 0
-124 101 117 0
-124 -101 -117 0
123 105 -121 0
123 -105 121 0
-123 105 121 0
-123 -105 -121 0
-125 124 0
-125 121 0
125 -124 -121 0
126 124 -121 0
126 -124 121 0
-126 124 121 0
-126 -124 -121 0
-127 128 0
-127 126 0
-127 -124 0
127 -128 124 -126 0
128 -124 126 0
-128 124 126 0
-129 126 0
128 -129 -124 0
-128 -129 124 0
128 129 124 -126 0
-128 129 -124 -126 0
-130 126 0
128 -130 124 0
-128 -130 -124 0
128 130 -124 -126 0
-128 130 124 -126 0
-131 128 0
-131 126 0
131 -128 -126 0
132 128 -126 0
132 -128 126 0
-132 128 126 0
-132 -128 -126 0
-133 11 0
-133 12 0
133 -11 -12 0
134 11 -12 0
134 -11 12 0
-134 11 12 0
-134 -11 -12 0
-135 136 0
-135 134 0
-135 -11 0
135 -136 11 -134 0
136 -11 134 0
-136 11 134 0
-137 134 0
136 -137 -11 0
-136 -137 11 0
136 137 11 -134 0
-136 137 -11 -134 0
-138 134 0
136 -138 11 0
-136 -138 -11 0
136 138 -11 -134 0
-136 138 11 -134 0
-139 136 0
-139 134 0
139 -136 -134 0
140 136 -134 0
140 -136 134 0
-140 136 134 0
-140 -136 -134 0
-141 13 0
-141 14 0
141 -13 -14 0
142 13 -14 0
142 -13 14 0
-142 13 14 0
-142 -13 -14 0
-143 144 0
-143 142 0
-143 -13 0
143 -144 13 -142 0
144 -13 142 0
-144 13 142 0
-145 142 0
144 -145 -13 0
-144 -145 13 0
144 145 13 -142 0
-144 145 -13 -142 0
-146 142 0
144 -146 13 0
-144 -146 -13 0
144 146 -13 -142 0
-144 146 13 -142 0
-147 144 0
-147 142 0
147 -144 -142 0
148 144 -142 0
148 -144 142 0
-148 144 142 0
-148 -144 -142 0
-149 144 0
-149 148 0
149 -144 -148 0
150 144 -148 0
150 -144 148 0
-150 144 148 0
-150 -144 -148 0
-151 152 0
-151 150 0
-151 -144 0
151 -152 144 -150 0
152 -144 150 0
-152 144 150 0
-153 150 0
152 -153 -144 0
-152 -153 144 0
152 153 144 -150 0
-152 153 -144 -150 0
-154 150 0
152 -154 144 0
-152 -154 -144 0
152 154 -144 -150 0
-152 154 144 -150 0
-155 152 0
-155 150 0
155 -152 -150 0
156 152 -150 0
156 -152 150 0
-156 152 150 0
-156 -152 -150 0
-157 128 0
-157 156 0
-157 152 -132 0
-157 -152 132 0
157 -128 152 132 -156 0
157 -128 -152 -132 -156 0
159 128 -152 0
159 -128 152 0
-159 128 152 0
-159 -128 -152 0
158 132 -156 0
158 -132 156 0
-158 132 156 0
-158 -132 -156 0
-160 159 0
-160 156 0
160 -159 -156 0
161 159 -156 0
161 -159 156 0
-161 159 156 0
-161 -159 -156 0
-162 163 0
-162 161 0
-162 -159 0
162 -163 159 -161 0
163 -159 161 0
-163 159 161 0
-164 161 0
163 -164 -159 0
-163 -164 159 0
163 164 159 -161 0
-163 164 -159 -161 0
-165 161 0
163 -165 159 0
-163 -165 -159 0
163 165 -159 -161 0
-163 165 159 -161 0
-166 163 0
-166 161 0
166 -163 -161 0
167 163 -161 0
167 -163 161 0
-167 163 161 0
-167 -163 -161 0
-168 163 0
-168 167 0
168 -163 -167 0
169 163 -167 0
169 -163 167 0
-169 163 167 0
-169 -163 -167 0
-170 171 0
-170 169 0
-170 -163 0
170 -171 163 -169 0
171 -163 169 0
-171 163 169 0
-172 169 0
171 -172 -163 0
-171 -172 163 0
171 172 163 -169 0
-171 172 -163 -169 0
-173 169 0
171 -173 163 0
-171 -173 -163 0
171 173 -163 -169 0
-171 173 163 -169 0
-174 171 0
-174 169 0
174 -171 -169 0
175 171 -169 0
175 -171 169 0
-175 171 169 0
-175 -171 -169 0
-176 136 0
-176 175 0
-176 171 -140 0
-176 -171 140 0
176 -136 171 140 -175 0
176 -136 -171 -140 -175 0
178 136 -171 0
178 -136 171 0
-178 136 171 0
-178 -136 -171 0
177 140 -175 0
177 -140 175 0
-177 140 175 0
-177 -140 -175 0
-179 178 0
-179 175 0
179 -178 -175 0
180 178 -175 0
180 -178 175 0
-180 178 175 0
-180 -178 -175 0
-181 182 0
-181 180 0
-181 -178 0
181 -182 178 -180 0
182 -178 180 0
-182 178 180 0
-183 180 0
182 -183 -178 0
-182 -183 178 0
182 183 178 -180 0
-182 183 -178 -180 0
-184 180 0
182 -184 178 0
-182 -184 -178 0
182 184 -178 -180 0
-182 184 178 -180 0
-185 182 0
-185 180 0
185 -182 -180 0
186 182 -180 0
186 -182 180 0
-186 182 180 0
-186 -182 -180 0
-187 15 0
-187 16 0
187 -15 -16 0
188 15 -16 0
188 -15 16 0
-188 15 16 0
-188 -15 -16 0
-189 190 0
-189 188 0
-189 -15 0
189 -190 15 -188 0
190 -15 188 0
-190 15 188 0
-191 188 0
190 -191 -15 0
-190 -191 15 0
190 191 15 -188 0
-190 191 -15 -188 0
-192 188 0
190 -192 15 0
-190 -192 -15 0
190 192 -15 -188 0
-190 192 15 -188 0
-193 190 0
-193 188 0
193 -190 -188 0
194 190 -188 0
194 -190 188 0
-194 190 188 0
-194 -190 -188 0
-195 190 0
-195 194 0
195 -190 -194 0
196 190 -194 0
196 -190 194 0
-196 190 194 0
-196 -190 -194 0
-197 198 0
-197 196 0
-197 -190 0
197 -198 190 -196 0
198 -190 196 0
-198 190 196 0
-199 196 0
198 -199 -190 0
-198 -199 190 0
198 199 190 -196 0
-198 199 -190 -196 0
-200 196 0
198 -200 190 0
-198 -200 -190 0
198 200 -190 -196 0
-198 200 190 -196 0
-201 198 0
-201 196 0
201 -198 -196 0
202 198 -196 0
202 -198 196 0
-202 198 196 0
-202 -198 -196 0
-203 101 0
-203 202 0
-203 198 -123 0
-203 -198 123 0
203 -101 198 123 -202 0
203 -101 -198 -123 -202 0
205 101 -198 0
205 -101 198 0
-205 101 198 0
-205 -101 -198 0
204 123 -202 0
204 -123 202 0
-204 123 202 0
-204 -123 -202 0
-206 205 0
-206 202 0
206 -205 -202 0
207 205 -202 0
207 -205 202 0
-207 205 202 0
-207 -205 -202 0
-208 209 0
-208 207 0
-208 -205 0
208 -209 205 -207 0
209 -205 207 0
-209 205 207 0
-210 207 0
209 -210 -205 0
-209 -210 205 0
209 210 205 -207 0
-209 210 -205 -207 0
-211 207 0
209 -211 205 0
-209 -211 -205 0
209 211 -205 -207 0
-209 211 205 -207 0
-212 209 0
-212 207 0
212 -209 -207 0
213 209 -207 0
213 -209 207 0
-213 209 207 0
-213 -209 -207 0
-214 209 0
-214 213 0
214 -209 -213 0
215 209 -213 0
215 -209 213 0
-215 209 213 0
-215 -209 -213 0
-216 217 0
-216 215 0
-216 -209 0
216 -217 209 -215 0
217 -209 215 0
-217 209 215 0
-218 215 0
217 -218 -209 0
-217 -218 209 0
217 218 209 -215 0
-217 218 -209 -215 0
-219 215 0
217 -219 209 0
-217 -219 -209 0
217 219 -209 -215 0
-217 219 209 -215 0
-220 217 0
-220 215 0
220 -217 -215 0
221 217 -215 0
221 -217 215 0
-221 217 215 0
-221 -217 -215 0
-222 136 0
-222 221 0
-222 217 -177 0
-222 -217 177 0
222 -136 217 177 -221 0
222 -136 -217 -177 -221 0
224 136 -217 0
224 -136 217 0
-224 136 217 0
-224 -136 -217 0
223 177 -221 0
223 -177 221 0
-223 177 221 0
-223 -177 -221 0
-225 224 0
-225 221 0
225 -224 -221 0
226 224 -221 0
226 -224 221 0
-226 224 221 0
-226 -224 -221 0
-227 228 0
-227 226 0
-227 -224 0
227 -228 224 -226 0
228 -224 226 0
-228 224 226 0
-229 226 0
228 -229 -224 0
-228 -229 224 0
228 229 224 -226 0
-228 229 -224 -226 0
-230 226 0
228 -230 224 0
-228 -230 -224 0
228 230 -224 -226 0
-228 230 224 -226 0
-231 228 0
-231 226 0
231 -228 -226 0
232 228 -226 0
232 -228 226 0
-232 228 226 0
-232 -228 -226 0
-20 0
-47 0
-88 0
-93 0
-97 0
-101 0
-204 0
-128 0
-158 0
-136 0
-223 0
-182 0
-186 0
-228 0
-232 0
